p edge 64 512
e 1 12
e 1 26
e 1 49
e 1 14
e 1 7
e 1 51
e 1 58
e 1 8
e 1 43
e 1 10
e 1 23
e 1 27
e 1 16
e 1 63
e 1 37
e 1 20
e 1 2
e 1 29
e 2 32
e 2 20
e 2 56
e 2 19
e 2 46
e 2 42
e 2 49
e 2 51
e 2 61
e 2 55
e 2 35
e 2 7
e 2 14
e 2 40
e 2 54
e 2 11
e 2 22
e 2 57
e 2 63
e 2 8
e 2 47
e 3 15
e 3 33
e 3 17
e 3 35
e 3 31
e 3 49
e 3 30
e 3 40
e 3 54
e 3 24
e 3 19
e 3 50
e 3 43
e 4 53
e 4 58
e 4 5
e 4 40
e 4 19
e 4 51
e 4 33
e 4 64
e 4 26
e 4 60
e 4 21
e 4 25
e 4 20
e 4 44
e 4 45
e 4 46
e 4 47
e 4 49
e 5 51
e 5 37
e 5 52
e 5 20
e 5 28
e 5 17
e 5 32
e 5 26
e 5 18
e 5 43
e 5 19
e 6 44
e 6 18
e 6 51
e 6 61
e 6 7
e 6 15
e 6 62
e 6 40
e 6 32
e 6 37
e 7 59
e 7 22
e 7 24
e 7 16
e 7 58
e 7 9
e 7 29
e 7 48
e 7 47
e 7 55
e 7 37
e 7 15
e 7 36
e 7 33
e 8 43
e 8 10
e 8 45
e 8 35
e 8 54
e 8 14
e 8 61
e 8 58
e 8 51
e 8 38
e 8 60
e 8 12
e 8 9
e 8 50
e 8 27
e 8 26
e 8 41
e 8 39
e 9 30
e 9 26
e 9 20
e 9 38
e 9 17
e 9 46
e 9 24
e 9 18
e 9 54
e 9 42
e 9 50
e 10 54
e 10 55
e 10 41
e 10 36
e 10 45
e 10 40
e 10 37
e 10 57
e 10 58
e 10 39
e 10 64
e 10 26
e 10 46
e 10 21
e 11 41
e 11 40
e 11 44
e 11 18
e 11 47
e 11 52
e 11 36
e 11 54
e 11 64
e 11 30
e 11 32
e 11 58
e 11 53
e 11 43
e 11 20
e 12 34
e 12 63
e 12 58
e 12 13
e 12 39
e 12 24
e 12 64
e 12 62
e 12 16
e 12 19
e 12 27
e 12 38
e 12 32
e 13 44
e 13 52
e 13 49
e 13 30
e 13 26
e 13 58
e 13 56
e 13 53
e 13 38
e 13 37
e 13 14
e 13 51
e 13 43
e 13 36
e 14 26
e 14 27
e 14 55
e 14 34
e 14 16
e 14 51
e 14 54
e 14 52
e 14 49
e 14 63
e 14 22
e 14 40
e 14 38
e 14 41
e 14 45
e 14 24
e 15 61
e 15 39
e 15 36
e 15 54
e 15 62
e 15 60
e 15 32
e 15 43
e 15 29
e 15 22
e 16 59
e 16 49
e 16 48
e 16 45
e 16 47
e 16 62
e 16 27
e 16 26
e 16 37
e 16 52
e 16 63
e 16 34
e 16 64
e 16 36
e 17 54
e 17 36
e 17 18
e 17 31
e 17 39
e 17 24
e 17 33
e 17 21
e 17 63
e 17 32
e 17 60
e 17 20
e 17 53
e 17 40
e 17 41
e 17 46
e 18 30
e 18 36
e 18 61
e 18 55
e 18 27
e 18 57
e 18 44
e 19 32
e 19 52
e 19 33
e 19 39
e 19 40
e 19 62
e 19 46
e 19 30
e 19 23
e 19 27
e 19 47
e 19 21
e 20 52
e 20 33
e 20 35
e 20 38
e 20 39
e 20 56
e 20 50
e 21 36
e 21 32
e 21 52
e 21 58
e 21 62
e 21 25
e 21 37
e 21 40
e 21 54
e 21 45
e 21 27
e 21 55
e 21 50
e 21 43
e 21 61
e 22 30
e 22 28
e 22 23
e 22 37
e 22 52
e 22 60
e 22 35
e 22 45
e 23 58
e 23 47
e 23 59
e 23 57
e 23 62
e 23 37
e 23 41
e 23 55
e 24 33
e 24 31
e 24 45
e 24 44
e 24 25
e 24 42
e 24 36
e 24 52
e 24 47
e 24 32
e 25 55
e 25 63
e 25 34
e 25 62
e 25 58
e 25 42
e 25 46
e 25 56
e 25 36
e 25 26
e 25 31
e 26 28
e 26 43
e 26 41
e 26 60
e 26 33
e 26 53
e 26 40
e 26 45
e 26 49
e 26 50
e 26 42
e 27 34
e 27 57
e 27 44
e 27 54
e 27 49
e 27 56
e 27 53
e 27 41
e 28 59
e 28 33
e 28 53
e 28 64
e 28 38
e 28 29
e 28 62
e 28 60
e 28 47
e 29 46
e 29 48
e 29 55
e 29 36
e 29 35
e 29 39
e 29 34
e 29 37
e 29 53
e 30 36
e 30 53
e 30 38
e 30 33
e 30 45
e 30 58
e 30 61
e 30 60
e 30 34
e 30 31
e 31 37
e 31 58
e 31 59
e 31 46
e 31 55
e 31 39
e 31 57
e 32 54
e 32 58
e 32 63
e 32 43
e 32 51
e 32 59
e 32 60
e 32 33
e 32 57
e 32 64
e 33 42
e 33 52
e 33 35
e 33 56
e 33 57
e 33 47
e 33 41
e 34 51
e 34 60
e 34 55
e 34 53
e 34 61
e 34 40
e 35 46
e 35 45
e 35 40
e 35 38
e 35 39
e 35 62
e 35 41
e 36 59
e 36 44
e 37 52
e 37 56
e 37 57
e 37 62
e 37 47
e 37 50
e 37 44
e 37 49
e 37 45
e 37 59
e 37 42
e 37 58
e 38 55
e 38 49
e 38 39
e 38 51
e 38 45
e 38 40
e 39 47
e 39 45
e 39 43
e 39 52
e 39 41
e 39 55
e 39 61
e 39 51
e 40 59
e 40 54
e 40 45
e 40 64
e 40 52
e 40 50
e 41 52
e 41 42
e 41 45
e 42 54
e 42 64
e 42 51
e 42 48
e 42 57
e 43 51
e 43 50
e 43 52
e 43 56
e 44 49
e 44 56
e 44 52
e 44 63
e 44 62
e 44 60
e 44 57
e 45 50
e 45 47
e 45 62
e 45 51
e 45 61
e 45 64
e 45 57
e 45 60
e 46 48
e 46 56
e 46 55
e 46 58
e 46 54
e 46 62
e 47 54
e 47 56
e 47 62
e 47 49
e 48 52
e 48 49
e 48 63
e 49 59
e 49 51
e 49 62
e 49 50
e 50 61
e 50 55
e 50 56
e 50 58
e 51 57
e 51 55
e 51 58
e 52 59
e 52 53
e 52 58
e 52 56
e 54 56
e 55 57
e 55 58
e 55 60
e 56 58
e 57 61
e 57 60
e 58 62
e 58 61
e 58 64
e 59 60
e 60 63
e 60 62
e 61 62
e 63 64
